(set-info :smt-lib-version 2.7)
(set-logic QF_SNIA)
(set-info :source  | 
Generated by: Johannes Bauer
Generated on: 2026-06-21
Generator: mgm A12 Test Data Generator
Application: ELSTER
Target solver: Z3, CVC5
Script is based on the ELSTER form: capital gains tax registration (A / KapEStInvStG)
Characteristic of the form: easy.
In this script, all terms of the form (* x1 x2 x3 ...) are in the form (* x1 c2 c3 ...),
all terms of the form (div x y) are in the form (div x c) and the symbol mod is exclusively used in the form (mod x c),
where x, y, and x1, x2, x3 ... are free constants and c, c2, c3 ... are terms in the form n or (-n) for some numeral n.
The script starts with the base constraints, which define a valid data set for the corresponding form. After the first (push 1), control constraints follow.
The goal of the control constraints in this script is to fill up a data set with values, after the characteristics of the high test coverage were placed.
number variables: 242, number constraints: 284
"https://www.elster.de/eportal/start?locale=en_US"
"https://www.mgm-tp.com/q12-tdg.html"
"https://a12.ai/public-sector"
|)
(set-info :license "https://creativecommons.org/licenses/by/4.0/")
(set-info :category "industrial")
(set-info :major-phase |variable declarations|)
(declare-fun S1-S () String)
(declare-fun S2-S () String)
(declare-fun B3-F () Bool)
(declare-fun S3-S () String)
(declare-fun B4-F () Bool)
(declare-fun B5-F () Bool)
(declare-fun B6-F () Bool)
(declare-fun B7-F () Bool)
(declare-fun I7-y () Int)
(declare-fun B8-F () Bool)
(declare-fun S8-S () String)
(declare-fun B9-F () Bool)
(declare-fun B10-F () Bool)
(declare-fun B11-F () Bool)
(declare-fun S11-S () String)
(declare-fun B12-F () Bool)
(declare-fun I12-y () Int)
(declare-fun I12-m () Int)
(declare-fun I12-d () Int)
(declare-fun B13-F () Bool)
(declare-fun I13-y () Int)
(declare-fun I13-m () Int)
(declare-fun I13-d () Int)
(declare-fun B14-F () Bool)
(declare-fun B15-F () Bool)
(declare-fun B16-F () Bool)
(declare-fun I16 () Int)
(declare-fun B17-F () Bool)
(declare-fun I17 () Int)
(declare-fun B18-F () Bool)
(declare-fun I18 () Int)
(declare-fun B19-F () Bool)
(declare-fun B20-F () Bool)
(declare-fun B21-F () Bool)
(declare-fun I21 () Int)
(declare-fun B22-F () Bool)
(declare-fun I22 () Int)
(declare-fun B23-F () Bool)
(declare-fun I23 () Int)
(declare-fun B24-F () Bool)
(declare-fun B25-F () Bool)
(declare-fun B26-F () Bool)
(declare-fun I26 () Int)
(declare-fun B27-F () Bool)
(declare-fun I27 () Int)
(declare-fun B28-F () Bool)
(declare-fun I28 () Int)
(declare-fun B29-F () Bool)
(declare-fun I29-s-y () Int)
(declare-fun I29-s-m () Int)
(declare-fun I29-s-d () Int)
(declare-fun I29-e-y () Int)
(declare-fun I29-e-m () Int)
(declare-fun I29-e-d () Int)
(declare-fun B30-F () Bool)
(declare-fun I30-y () Int)
(declare-fun I30-m () Int)
(declare-fun I30-d () Int)
(declare-fun B31-F () Bool)
(declare-fun I31-y () Int)
(declare-fun I31-m () Int)
(declare-fun I31-d () Int)
(declare-fun B32-F () Bool)
(declare-fun B33-F () Bool)
(declare-fun B34-F () Bool)
(declare-fun I34 () Int)
(declare-fun B35-F () Bool)
(declare-fun B36-F () Bool)
(declare-fun I36 () Int)
(declare-fun B37-F () Bool)
(declare-fun B38-F () Bool)
(declare-fun B39-F () Bool)
(declare-fun I39 () Int)
(declare-fun B40-F () Bool)
(declare-fun I40 () Int)
(declare-fun B41-F () Bool)
(declare-fun I41 () Int)
(declare-fun B42-F () Bool)
(declare-fun B43-F () Bool)
(declare-fun I43-s-y () Int)
(declare-fun I43-s-m () Int)
(declare-fun I43-s-d () Int)
(declare-fun I43-e-y () Int)
(declare-fun I43-e-m () Int)
(declare-fun I43-e-d () Int)
(declare-fun B44-F () Bool)
(declare-fun I44-y () Int)
(declare-fun I44-m () Int)
(declare-fun I44-d () Int)
(declare-fun B45-F () Bool)
(declare-fun I45-y () Int)
(declare-fun I45-m () Int)
(declare-fun I45-d () Int)
(declare-fun B46-F () Bool)
(declare-fun B47-F () Bool)
(declare-fun B48-F () Bool)
(declare-fun I48 () Int)
(declare-fun B49-F () Bool)
(declare-fun B50-F () Bool)
(declare-fun B51-F () Bool)
(declare-fun B52-F () Bool)
(declare-fun B53-F () Bool)
(declare-fun I53 () Int)
(declare-fun B54-F () Bool)
(declare-fun I54 () Int)
(declare-fun B55-F () Bool)
(declare-fun I55 () Int)
(declare-fun B56-F () Bool)
(declare-fun B57-F () Bool)
(declare-fun B58-F () Bool)
(declare-fun I58 () Int)
(declare-fun B59-F () Bool)
(declare-fun I59 () Int)
(declare-fun B60-F () Bool)
(declare-fun B61-F () Bool)
(declare-fun B62-F () Bool)
(declare-fun S62-S () String)
(declare-fun B63-F () Bool)
(declare-fun I63-y () Int)
(declare-fun I63-m () Int)
(declare-fun I63-d () Int)
(declare-fun B64-F () Bool)
(declare-fun I64-y () Int)
(declare-fun I64-m () Int)
(declare-fun I64-d () Int)
(declare-fun B65-F () Bool)
(declare-fun I65-y () Int)
(declare-fun I65-m () Int)
(declare-fun I65-d () Int)
(declare-fun B66-F () Bool)
(declare-fun B67-F () Bool)
(declare-fun B68-F () Bool)
(declare-fun I68 () Int)
(declare-fun B69-F () Bool)
(declare-fun I69 () Int)
(declare-fun B70-F () Bool)
(declare-fun I70 () Int)
(declare-fun B71-F () Bool)
(declare-fun B72-F () Bool)
(declare-fun B73-F () Bool)
(declare-fun I73 () Int)
(declare-fun B74-F () Bool)
(declare-fun I74 () Int)
(declare-fun B75-F () Bool)
(declare-fun I75 () Int)
(declare-fun B76-F () Bool)
(declare-fun B77-F () Bool)
(declare-fun B78-F () Bool)
(declare-fun B79-F () Bool)
(declare-fun B80-F () Bool)
(declare-fun I80 () Int)
(declare-fun B81-F () Bool)
(declare-fun I81-y () Int)
(declare-fun I81-m () Int)
(declare-fun I81-d () Int)
(declare-fun B82-F () Bool)
(declare-fun B83-F () Bool)
(declare-fun B84-F () Bool)
(declare-fun B85-F () Bool)
(declare-fun I85 () Int)
(declare-fun B86-F () Bool)
(declare-fun I86 () Int)
(declare-fun B87-F () Bool)
(declare-fun I87 () Int)
(declare-fun B88-F () Bool)
(declare-fun B89-F () Bool)
(declare-fun B90-F () Bool)
(declare-fun I90 () Int)
(declare-fun B91-F () Bool)
(declare-fun I91 () Int)
(declare-fun B92-F () Bool)
(declare-fun I92 () Int)
(declare-fun B93-F () Bool)
(declare-fun B94-F () Bool)
(declare-fun B95-F () Bool)
(declare-fun I95 () Int)
(declare-fun B96-F () Bool)
(declare-fun I96 () Int)
(declare-fun B97-F () Bool)
(declare-fun I97 () Int)
(declare-fun B98-F () Bool)
(declare-fun B99-F () Bool)
(declare-fun B100-F () Bool)
(declare-fun I100 () Int)
(declare-fun I101 () Int)
(declare-fun B102-F () Bool)
(declare-fun I102-y () Int)
(declare-fun I102-m () Int)
(declare-fun I102-d () Int)
(declare-fun B103-F () Bool)
(declare-fun B104-F () Bool)
(declare-fun I104 () Int)
(declare-fun B105-F () Bool)
(declare-fun I105 () Int)
(declare-fun B106-F () Bool)
(declare-fun B107-F () Bool)
(declare-fun B108-F () Bool)
(declare-fun I108 () Int)
(declare-fun B109-F () Bool)
(declare-fun I109 () Int)
(declare-fun B110-F () Bool)
(declare-fun I110 () Int)
(declare-fun B111-F () Bool)
(declare-fun I111 () Int)
(declare-fun B112-F () Bool)
(declare-fun B113-F () Bool)
(declare-fun I113 () Int)
(declare-fun B114-F () Bool)
(declare-fun I114 () Int)
(declare-fun B115-F () Bool)
(declare-fun I115 () Int)
(declare-fun B116-F () Bool)
(declare-fun I116 () Int)
(declare-fun B117-F () Bool)
(declare-fun I117 () Int)
(declare-fun B118-F () Bool)
(declare-fun I118 () Int)
(declare-fun B119-F () Bool)
(declare-fun I119 () Int)
(declare-fun B120-F () Bool)
(declare-fun I120 () Int)
(declare-fun B121-F () Bool)
(declare-fun I121 () Int)
(declare-fun B122-F () Bool)
(declare-fun I122 () Int)
(declare-fun B123-F () Bool)
(declare-fun I123 () Int)
(declare-fun B124-F () Bool)
(declare-fun I124 () Int)
(declare-fun B125-F () Bool)
(declare-fun I126 () Int)
(declare-fun B127-F () Bool)
(declare-fun B128-F () Bool)
(declare-fun B129-F () Bool)
(declare-fun B130-F () Bool)
(declare-fun B131-F () Bool)
(declare-fun B132-F () Bool)
(declare-fun B133-F () Bool)
(declare-fun B134-F () Bool)
(declare-fun B135-F () Bool)
(declare-fun B136-F () Bool)
(declare-fun B137-F () Bool)
(set-info :major-phase |base constraints|)
(set-info :base-constraint-type |constraints defining hierarchy (group is filled, if a child is filled)|)
(assert (not (or B102-F B103-F)))
(assert (= B103-F (or B104-F B105-F)))
(assert (= B127-F (or B128-F B129-F)))
(assert (= B10-F (or B11-F B12-F B13-F B14-F B19-F B24-F)))
(assert (= B14-F (or B15-F B16-F B17-F B18-F)))
(assert (= B19-F (or B20-F B21-F B22-F B23-F)))
(assert (= B24-F (or B25-F B26-F B27-F B28-F)))
(assert (= B61-F (or B62-F B63-F B64-F B65-F B66-F B71-F B76-F)))
(assert (= B66-F (or B67-F B68-F B69-F B70-F)))
(assert (= B71-F (or B72-F B73-F B74-F B75-F)))
(assert (= B76-F (or B77-F B78-F B79-F B80-F)))
(assert (= B83-F (or B84-F B85-F B86-F B87-F)))
(assert (= B88-F (or B89-F B90-F B91-F B92-F)))
(assert (= B93-F (or B94-F B95-F B96-F B97-F)))
(assert (or B29-F B30-F B31-F B32-F B37-F))
(assert (= B32-F (or B33-F B34-F B35-F B36-F)))
(assert (= B37-F (or B38-F B39-F B40-F B41-F)))
(assert (= B42-F (or B43-F B44-F B45-F B46-F B51-F B56-F)))
(assert (= B46-F (or B47-F B48-F B49-F B50-F)))
(assert (= B51-F (or B52-F B53-F B54-F B55-F)))
(assert (= B56-F (or B57-F B58-F B59-F B60-F)))
(assert (= B130-F (or B131-F B132-F)))
(assert (= B132-F (or B133-F B134-F B135-F B136-F)))
(assert (= B106-F (or B107-F B125-F)))
(assert (= B107-F (or B108-F B109-F B110-F B111-F B112-F B113-F B114-F B115-F B116-F B117-F B118-F B119-F B120-F B121-F B122-F B123-F B124-F)))
(set-info :base-constraint-type |domainconstraints number-fields|)
(assert (ite B104-F (and (<= I104 999999999999) (>= I104 0)) (= I104 0)))
(assert (ite B105-F (and (<= I105 999999999999) (>= I105 0)) (= I105 0)))
(assert (ite B100-F (and (<= I100 999999999999) (>= I100 (- 999999999999))) (= I100 0)))
(assert (and (<= I101 99999999999999) (>= I101 (- 99999999999999))))
(assert (ite B16-F (and (<= I16 999999999999) (>= I16 (- 999999999999))) (= I16 0)))
(assert (ite B17-F (and (<= I17 999999999999) (>= I17 (- 999999999999))) (= I17 0)))
(assert (ite B18-F (and (<= I18 99999999999999) (>= I18 (- 99999999999999))) (= I18 0)))
(assert (ite B21-F (and (<= I21 999999999999) (>= I21 (- 999999999999))) (= I21 0)))
(assert (ite B22-F (and (<= I22 999999999999) (>= I22 (- 999999999999))) (= I22 0)))
(assert (ite B23-F (and (<= I23 99999999999999) (>= I23 (- 99999999999999))) (= I23 0)))
(assert (ite B26-F (and (<= I26 999999999999) (>= I26 (- 999999999999))) (= I26 0)))
(assert (ite B27-F (and (<= I27 999999999999) (>= I27 (- 999999999999))) (= I27 0)))
(assert (ite B28-F (and (<= I28 99999999999999) (>= I28 (- 99999999999999))) (= I28 0)))
(assert (ite B68-F (and (<= I68 999999999999) (>= I68 (- 999999999999))) (= I68 0)))
(assert (ite B69-F (and (<= I69 999999999999) (>= I69 (- 999999999999))) (= I69 0)))
(assert (ite B70-F (and (<= I70 99999999999999) (>= I70 (- 99999999999999))) (= I70 0)))
(assert (ite B73-F (and (<= I73 999999999999) (>= I73 (- 999999999999))) (= I73 0)))
(assert (ite B74-F (and (<= I74 999999999999) (>= I74 (- 999999999999))) (= I74 0)))
(assert (ite B75-F (and (<= I75 99999999999999) (>= I75 (- 99999999999999))) (= I75 0)))
(assert (ite B78-F true false))
(assert (ite B79-F true false))
(assert (ite B80-F (and (<= I80 99999999999999) (>= I80 (- 99999999999999))) (= I80 0)))
(assert (ite B85-F (and (<= I85 999999999999) (>= I85 0)) (= I85 0)))
(assert (ite B86-F (and (<= I86 999999999999) (>= I86 0)) (= I86 0)))
(assert (ite B87-F (and (<= I87 99999999999999) (>= I87 0)) (= I87 0)))
(assert (ite B90-F (and (<= I90 999999999999) (>= I90 0)) (= I90 0)))
(assert (ite B91-F (and (<= I91 999999999999) (>= I91 0)) (= I91 0)))
(assert (ite B92-F (and (<= I92 99999999999999) (>= I92 0)) (= I92 0)))
(assert (ite B95-F (and (<= I95 999999999999) (>= I95 0)) (= I95 0)))
(assert (ite B96-F (and (<= I96 999999999999) (>= I96 0)) (= I96 0)))
(assert (ite B97-F (and (<= I97 99999999999999) (>= I97 0)) (= I97 0)))
(assert (ite B98-F true false))
(assert (ite B99-F true false))
(assert (ite B34-F (and (<= I34 999999999999) (>= I34 (- 999999999999))) (= I34 0)))
(assert (ite B35-F true false))
(assert (ite B36-F (and (<= I36 99999999999999) (>= I36 (- 99999999999999))) (= I36 0)))
(assert (ite B39-F (and (<= I39 999999999999) (>= I39 (- 999999999999))) (= I39 0)))
(assert (ite B40-F (and (<= I40 999999999999) (>= I40 (- 999999999999))) (= I40 0)))
(assert (ite B41-F (and (<= I41 99999999999999) (>= I41 (- 99999999999999))) (= I41 0)))
(assert (ite B48-F (and (<= I48 999999999999) (>= I48 (- 999999999999))) (= I48 0)))
(assert (ite B49-F true false))
(assert (ite B50-F true false))
(assert (ite B53-F (and (<= I53 999999999999) (>= I53 (- 999999999999))) (= I53 0)))
(assert (ite B54-F (and (<= I54 999999999999) (>= I54 (- 999999999999))) (= I54 0)))
(assert (ite B55-F (and (<= I55 99999999999999) (>= I55 (- 99999999999999))) (= I55 0)))
(assert (ite B58-F (and (<= I58 999999999999) (>= I58 (- 999999999999))) (= I58 0)))
(assert (ite B59-F (and (<= I59 999999999999) (>= I59 (- 999999999999))) (= I59 0)))
(assert (ite B60-F true false))
(assert (ite B111-F (and (<= I111 99999999999999) (>= I111 (- 9999999999999))) (= I111 0)))
(assert (ite B110-F (and (<= I110 99999999999999) (>= I110 (- 9999999999999))) (= I110 0)))
(assert (ite B108-F (and (<= I108 99999999999999) (>= I108 (- 9999999999999))) (= I108 0)))
(assert (ite B109-F (and (<= I109 99999999999999) (>= I109 (- 9999999999999))) (= I109 0)))
(assert (ite B112-F true false))
(assert (ite B114-F (and (<= I114 99999999999999) (>= I114 (- 9999999999999))) (= I114 0)))
(assert (ite B113-F (and (<= I113 99999999999999) (>= I113 (- 9999999999999))) (= I113 0)))
(assert (ite B115-F (and (<= I115 99999999999999) (>= I115 (- 9999999999999))) (= I115 0)))
(assert (ite B116-F (and (<= I116 99999999999999) (>= I116 (- 9999999999999))) (= I116 0)))
(assert (ite B117-F (and (<= I117 99999999999999) (>= I117 (- 9999999999999))) (= I117 0)))
(assert (ite B118-F (and (<= I118 99999999999999) (>= I118 (- 9999999999999))) (= I118 0)))
(assert (ite B122-F (and (<= I122 99999999999999) (>= I122 (- 9999999999999))) (= I122 0)))
(assert (ite B119-F (and (<= I119 99999999999999) (>= I119 (- 9999999999999))) (= I119 0)))
(assert (ite B120-F (and (<= I120 99999999999999) (>= I120 (- 9999999999999))) (= I120 0)))
(assert (ite B121-F (and (<= I121 99999999999999) (>= I121 (- 9999999999999))) (= I121 0)))
(assert (ite B123-F (and (<= I123 99999999999999) (>= I123 (- 9999999999999))) (= I123 0)))
(assert (ite B124-F (and (<= I124 99999999999999) (>= I124 (- 9999999999999))) (= I124 0)))
(assert (ite B125-F (and (<= I126 99999999999999) (>= I126 (- 9999999999999))) (= I126 0)))
(set-info :base-constraint-type |domainconstraints date-fields|)
(assert (and (ite B102-F (and (> I102-y 1900) (< I102-y 2100)) (= I102-y 0)) (ite B102-F (and (> I102-m 0) (<= I102-m 12)) (= I102-m 0)) (ite B102-F (and (> I102-d 0) (<= I102-d (ite (or (= I102-m 0) (= I102-m 1) (= I102-m 3) (= I102-m 5) (= I102-m 7) (= I102-m 8) (= I102-m 10) (= I102-m 12)) 31 (ite (or (= I102-m 4) (= I102-m 6) (= I102-m 9) (= I102-m 11)) 30 (ite (= (mod I102-y 4) 0) 29 28))))) (= I102-d 0))))
(assert (ite B7-F (and (> I7-y 1900) (< I7-y 2100)) (= I7-y 0)))
(assert (and (ite B13-F (and (> I13-y 1900) (< I13-y 2100)) (= I13-y 0)) (ite B13-F (and (> I13-m 0) (<= I13-m 12)) (= I13-m 0)) (ite B13-F (and (> I13-d 0) (<= I13-d (ite (or (= I13-m 0) (= I13-m 1) (= I13-m 3) (= I13-m 5) (= I13-m 7) (= I13-m 8) (= I13-m 10) (= I13-m 12)) 31 (ite (or (= I13-m 4) (= I13-m 6) (= I13-m 9) (= I13-m 11)) 30 (ite (= (mod I13-y 4) 0) 29 28))))) (= I13-d 0))))
(assert (and (ite B12-F (and (> I12-y 1900) (< I12-y 2100)) (= I12-y 0)) (ite B12-F (and (> I12-m 0) (<= I12-m 12)) (= I12-m 0)) (ite B12-F (and (> I12-d 0) (<= I12-d (ite (or (= I12-m 0) (= I12-m 1) (= I12-m 3) (= I12-m 5) (= I12-m 7) (= I12-m 8) (= I12-m 10) (= I12-m 12)) 31 (ite (or (= I12-m 4) (= I12-m 6) (= I12-m 9) (= I12-m 11)) 30 (ite (= (mod I12-y 4) 0) 29 28))))) (= I12-d 0))))
(assert (and (ite B64-F (and (> I64-y 1900) (< I64-y 2100)) (= I64-y 0)) (ite B64-F (and (> I64-m 0) (<= I64-m 12)) (= I64-m 0)) (ite B64-F (and (> I64-d 0) (<= I64-d (ite (or (= I64-m 0) (= I64-m 1) (= I64-m 3) (= I64-m 5) (= I64-m 7) (= I64-m 8) (= I64-m 10) (= I64-m 12)) 31 (ite (or (= I64-m 4) (= I64-m 6) (= I64-m 9) (= I64-m 11)) 30 (ite (= (mod I64-y 4) 0) 29 28))))) (= I64-d 0))))
(assert (and (ite B63-F (and (> I63-y 1900) (< I63-y 2100)) (= I63-y 0)) (ite B63-F (and (> I63-m 0) (<= I63-m 12)) (= I63-m 0)) (ite B63-F (and (> I63-d 0) (<= I63-d (ite (or (= I63-m 0) (= I63-m 1) (= I63-m 3) (= I63-m 5) (= I63-m 7) (= I63-m 8) (= I63-m 10) (= I63-m 12)) 31 (ite (or (= I63-m 4) (= I63-m 6) (= I63-m 9) (= I63-m 11)) 30 (ite (= (mod I63-y 4) 0) 29 28))))) (= I63-d 0))))
(assert (and (ite B65-F (and (> I65-y 1900) (< I65-y 2100)) (= I65-y 0)) (ite B65-F (and (> I65-m 0) (<= I65-m 12)) (= I65-m 0)) (ite B65-F (and (> I65-d 0) (<= I65-d (ite (or (= I65-m 0) (= I65-m 1) (= I65-m 3) (= I65-m 5) (= I65-m 7) (= I65-m 8) (= I65-m 10) (= I65-m 12)) 31 (ite (or (= I65-m 4) (= I65-m 6) (= I65-m 9) (= I65-m 11)) 30 (ite (= (mod I65-y 4) 0) 29 28))))) (= I65-d 0))))
(assert (and (ite B81-F (and (> I81-y 1900) (< I81-y 2100)) (= I81-y 0)) (ite B81-F (and (> I81-m 0) (<= I81-m 12)) (= I81-m 0)) (ite B81-F (and (> I81-d 0) (<= I81-d (ite (or (= I81-m 0) (= I81-m 1) (= I81-m 3) (= I81-m 5) (= I81-m 7) (= I81-m 8) (= I81-m 10) (= I81-m 12)) 31 (ite (or (= I81-m 4) (= I81-m 6) (= I81-m 9) (= I81-m 11)) 30 (ite (= (mod I81-y 4) 0) 29 28))))) (= I81-d 0))))
(assert (and (ite B31-F (and (> I31-y 1900) (< I31-y 2100)) (= I31-y 0)) (ite B31-F (and (> I31-m 0) (<= I31-m 12)) (= I31-m 0)) (ite B31-F (and (> I31-d 0) (<= I31-d (ite (or (= I31-m 0) (= I31-m 1) (= I31-m 3) (= I31-m 5) (= I31-m 7) (= I31-m 8) (= I31-m 10) (= I31-m 12)) 31 (ite (or (= I31-m 4) (= I31-m 6) (= I31-m 9) (= I31-m 11)) 30 (ite (= (mod I31-y 4) 0) 29 28))))) (= I31-d 0))))
(assert (and (ite B30-F (and (> I30-y 1900) (< I30-y 2100)) (= I30-y 0)) (ite B30-F (and (> I30-m 0) (<= I30-m 12)) (= I30-m 0)) (ite B30-F (and (> I30-d 0) (<= I30-d (ite (or (= I30-m 0) (= I30-m 1) (= I30-m 3) (= I30-m 5) (= I30-m 7) (= I30-m 8) (= I30-m 10) (= I30-m 12)) 31 (ite (or (= I30-m 4) (= I30-m 6) (= I30-m 9) (= I30-m 11)) 30 (ite (= (mod I30-y 4) 0) 29 28))))) (= I30-d 0))))
(assert (or (< I29-s-y I29-e-y) (and (= I29-s-y I29-e-y) (< I29-s-m I29-e-m)) (and (= I29-s-y I29-e-y) (= I29-s-m I29-e-m) (<= I29-s-d I29-e-d))))
(assert (=> B29-F (and (>= I29-e-d 1) (<= I29-e-d (ite (or (= I29-e-m 0) (= I29-e-m 1) (= I29-e-m 3) (= I29-e-m 5) (= I29-e-m 7) (= I29-e-m 8) (= I29-e-m 10) (= I29-e-m 12)) 31 (ite (or (= I29-e-m 4) (= I29-e-m 6) (= I29-e-m 9) (= I29-e-m 11)) 30 (ite (= (mod I29-e-y 4) 0) 29 28)))))))
(assert (=> B29-F (and (>= I29-e-m 1) (<= I29-e-m 12))))
(assert (=> B29-F (and (>= I29-e-y 1901) (<= I29-e-y 2099))))
(assert (=> B29-F (and (>= I29-s-d 1) (<= I29-s-d (ite (or (= I29-s-m 0) (= I29-s-m 1) (= I29-s-m 3) (= I29-s-m 5) (= I29-s-m 7) (= I29-s-m 8) (= I29-s-m 10) (= I29-s-m 12)) 31 (ite (or (= I29-s-m 4) (= I29-s-m 6) (= I29-s-m 9) (= I29-s-m 11)) 30 (ite (= (mod I29-s-y 4) 0) 29 28)))))))
(assert (=> B29-F (and (>= I29-s-m 1) (<= I29-s-m 12))))
(assert (=> B29-F (and (>= I29-s-y 1901) (<= I29-s-y 2099))))
(assert (and (ite B45-F (and (> I45-y 1900) (< I45-y 2100)) (= I45-y 0)) (ite B45-F (and (> I45-m 0) (<= I45-m 12)) (= I45-m 0)) (ite B45-F (and (> I45-d 0) (<= I45-d (ite (or (= I45-m 0) (= I45-m 1) (= I45-m 3) (= I45-m 5) (= I45-m 7) (= I45-m 8) (= I45-m 10) (= I45-m 12)) 31 (ite (or (= I45-m 4) (= I45-m 6) (= I45-m 9) (= I45-m 11)) 30 (ite (= (mod I45-y 4) 0) 29 28))))) (= I45-d 0))))
(assert (and (ite B44-F (and (> I44-y 1900) (< I44-y 2100)) (= I44-y 0)) (ite B44-F (and (> I44-m 0) (<= I44-m 12)) (= I44-m 0)) (ite B44-F (and (> I44-d 0) (<= I44-d (ite (or (= I44-m 0) (= I44-m 1) (= I44-m 3) (= I44-m 5) (= I44-m 7) (= I44-m 8) (= I44-m 10) (= I44-m 12)) 31 (ite (or (= I44-m 4) (= I44-m 6) (= I44-m 9) (= I44-m 11)) 30 (ite (= (mod I44-y 4) 0) 29 28))))) (= I44-d 0))))
(assert (or (< I43-s-y I43-e-y) (and (= I43-s-y I43-e-y) (< I43-s-m I43-e-m)) (and (= I43-s-y I43-e-y) (= I43-s-m I43-e-m) (<= I43-s-d I43-e-d))))
(assert (=> B43-F (and (>= I43-e-d 1) (<= I43-e-d (ite (or (= I43-e-m 0) (= I43-e-m 1) (= I43-e-m 3) (= I43-e-m 5) (= I43-e-m 7) (= I43-e-m 8) (= I43-e-m 10) (= I43-e-m 12)) 31 (ite (or (= I43-e-m 4) (= I43-e-m 6) (= I43-e-m 9) (= I43-e-m 11)) 30 (ite (= (mod I43-e-y 4) 0) 29 28)))))))
(assert (=> B43-F (and (>= I43-e-m 1) (<= I43-e-m 12))))
(assert (=> B43-F (and (>= I43-e-y 1901) (<= I43-e-y 2099))))
(assert (=> B43-F (and (>= I43-s-d 1) (<= I43-s-d (ite (or (= I43-s-m 0) (= I43-s-m 1) (= I43-s-m 3) (= I43-s-m 5) (= I43-s-m 7) (= I43-s-m 8) (= I43-s-m 10) (= I43-s-m 12)) 31 (ite (or (= I43-s-m 4) (= I43-s-m 6) (= I43-s-m 9) (= I43-s-m 11)) 30 (ite (= (mod I43-s-y 4) 0) 29 28)))))))
(assert (=> B43-F (and (>= I43-s-m 1) (<= I43-s-m 12))))
(assert (=> B43-F (and (>= I43-s-y 1901) (<= I43-s-y 2099))))
(set-info :base-constraint-type |constraints for date-strategy|)
(assert (=> B11-F (and (> (str.to_int S11-S) 1900) (< (str.to_int S11-S) 2100))))
(assert (=> B11-F (and (> (str.to_int S11-S) 1900) (< (str.to_int S11-S) 2100))))
(set-info :base-constraint-type |domainconstraints string fields|)
(assert (ite B11-F (and (str.in_re S11-S (re.+ (re.range "0" "9"))) (>= (str.len S11-S) 4) (<= (str.len S11-S) 4)) (= S11-S "")))
(assert (ite B62-F (and (str.in_re S62-S (re.+ (re.range "0" "9"))) (>= (str.len S62-S) 4) (<= (str.len S62-S) 4)) (= S62-S "")))
(set-info :base-constraint-type |domainconstraints index-based string fields|)
(assert (or (= S2-S "0") (= S2-S "1")))
(assert (ite B8-F (or (= S8-S "11") (= S8-S "01") (= S8-S "12") (= S8-S "02") (= S8-S "03") (= S8-S "04") (= S8-S "05") (= S8-S "06") (= S8-S "07") (= S8-S "08") (= S8-S "09") (= S8-S "10")) (= S8-S "")))
(assert (or (= S1-S "2216060427666") (= S1-S "2815094023008") (= S1-S "1060048649864") (= S1-S "2348008413417") (= S1-S "2702024686052") (= S1-S "3207051220872") (= S1-S "1123012960769") (= S1-S "5103096558745") (= S1-S "2632041436639") (= S1-S "3103071321727") (= S1-S "3062087900803") (= S1-S "9170050074951") (= S1-S "4084068125545") (= S1-S "2460083378687") (= S1-S "2189063488000")))
(assert (ite B3-F (or (= S3-S "2216060427666") (= S3-S "2815094023008") (= S3-S "1060048649864") (= S3-S "2348008413417") (= S3-S "2702024686052") (= S3-S "3207051220872") (= S3-S "1123012960769") (= S3-S "5103096558745") (= S3-S "2632041436639") (= S3-S "3103071321727") (= S3-S "3062087900803") (= S3-S "9170050074951") (= S3-S "4084068125545") (= S3-S "2460083378687") (= S3-S "2189063488000")) (= S3-S "")))
(set-info :base-constraint-type |constraints, guarding filling of calculations|)
(assert (= (or B17-F B22-F B27-F B35-F B40-F B49-F B54-F B59-F B69-F B74-F B79-F B86-F B91-F B96-F B99-F) B100-F))
(assert (= (or B111-F B110-F B112-F B108-F B109-F B113-F B114-F B115-F B116-F B117-F B124-F B118-F B121-F B122-F B119-F B120-F B123-F B100-F) B125-F))
(set-info :base-constraint-type |constraints from validation-rules|)
(assert (not (and B105-F B104-F (distinct I104 0) (distinct I105 (div (* I104 15) 100)))))
(assert (not (and B102-F (or (< I102-y 2025) (> I102-y 2025)))))
(assert (not (and (or B129-F B128-F) (not (and B129-F B128-F)))))
(assert (not (and (or B17-F B22-F B27-F B35-F B40-F B49-F B54-F B59-F B69-F B74-F B79-F B86-F B91-F B96-F B99-F) (not B100-F))))
(assert (not (and B100-F (not B108-F) (not B109-F) (not B110-F) (not B111-F) (not B112-F) (not B113-F) (not B114-F) (not B115-F) (not B116-F) (not B117-F) (not B118-F) (not B119-F) (not B120-F) (not B121-F) (not B122-F) (not B123-F) (not B124-F) (not B125-F))))
(assert (not (and B100-F (or B17-F B22-F B27-F B35-F B40-F B49-F B54-F B59-F B69-F B74-F B79-F B86-F B91-F B96-F B99-F) (distinct I100 (+ I17 I22 I27 I40 I54 I59 I69 I74 I86 I91 I96 (- 999996019255))))))
(assert (not (distinct I101 (+ I18 I23 I28 I36 I41 I55 I70 I75 I80 I87 I92 I97 (- 84996820)))))
(assert (not (and B7-F (or (< I7-y 2025) (> I7-y 2025)))))
(assert (not (and B13-F B12-F (or (> I13-y I12-y) (and (= I13-y I12-y) (> I13-m I12-m)) (and (= I13-y I12-y) (= I13-m I12-m) (> I13-d I12-d))))))
(assert (not (and B12-F (or (distinct I12-y (ite B7-F I7-y 0)) (distinct I12-m (str.to_int (ite B8-F S8-S "")))))))
(assert (not (and B11-F B13-F (>= (ite (and (>= (str.to_int S11-S) 1) (<= (str.to_int S11-S) 9999)) (+ (- I13-y (str.to_int S11-S)) (ite (or (< (str.to_int S11-S) I13-y) (and (= (str.to_int S11-S) I13-y) (< 5 I13-m)) (and (= (str.to_int S11-S) I13-y) (= 5 I13-m) (< 1 I13-d)) (and (= (str.to_int S11-S) I13-y) (= 5 I13-m) (= 1 I13-d))) (ite (or (< 5 I13-m) (and (= 5 I13-m) (<= 1 I13-d))) 0 (- 1)) (ite (or (> 5 I13-m) (and (= 5 I13-m) (>= 1 I13-d))) 0 1))) 0) 1))))
(assert (not (and B12-F (< I12-y (str.to_int (str.substr (ite B11-F S11-S "") 0 4))))))
(assert (not (and (not (and B13-F B12-F B11-F)) (or B14-F B19-F B24-F))))
(assert (not (and (or B11-F B12-F B13-F) (not B14-F) (not B19-F) (not B24-F))))
(assert (not (and B11-F (> (str.to_int (str.substr S11-S 0 4)) 2025))))
(assert (not (and (or B16-F B21-F B26-F) (or (and (distinct I16 0) (= I17 0)) (and (distinct I21 0) (= I22 0)) (and (distinct I26 0) (= I27 0))))))
(assert (not (and B17-F B18-F (> (ite (>= (- I18 (div (* I17 55) 10)) 0) (- I18 (div (* I17 55) 10)) (- (- I18 (div (* I17 55) 10)))) 100))))
(assert (not (and (or B15-F B16-F B17-F B18-F) (not (and B15-F B16-F B17-F B18-F)))))
(assert (not (and (or B17-F B22-F B27-F) (or (> (* I17 100) (+ (* I16 15) 100)) (> (* I22 100) (+ (* I21 15) 100)) (> (* I27 100) (+ (* I26 15) 100))))))
(assert (not (and B22-F B23-F (> (ite (>= (- I23 (div (* I22 55) 10)) 0) (- I23 (div (* I22 55) 10)) (- (- I23 (div (* I22 55) 10)))) 100))))
(assert (not (and (or B20-F B21-F B22-F B23-F) (not (and B20-F B21-F B22-F B23-F)))))
(assert (not (and B27-F B28-F (> (ite (>= (- I28 (div (* I27 55) 10)) 0) (- I28 (div (* I27 55) 10)) (- (- I28 (div (* I27 55) 10)))) 100))))
(assert (not (and (or B25-F B26-F B27-F B28-F) (not (and B25-F B26-F B27-F B28-F)))))
(assert (not (and B64-F (not B65-F))))
(assert (not (and B64-F B63-F (or (< I64-y I63-y) (and (= I64-y I63-y) (< I64-m I63-m)) (and (= I64-y I63-y) (= I64-m I63-m) (< I64-d I63-d)) (and (= I64-y I63-y) (= I64-m I63-m) (= I64-d I63-d))))))
(assert (not (and B64-F (< I64-y (str.to_int (str.substr (ite B62-F S62-S "") 0 4))))))
(assert (not (and B64-F B65-F (or (< I64-y I65-y) (and (= I64-y I65-y) (< I64-m I65-m)) (and (= I64-y I65-y) (= I64-m I65-m) (< I64-d I65-d))))))
(assert (not (and B64-F (or (< I64-y (ite B7-F I7-y 0)) (and (= I64-y (ite B7-F I7-y 0)) (< I64-m (str.to_int (ite B8-F S8-S ""))))))))
(assert (not (and B65-F (< I65-y 2023))))
(assert (not (and (not (and B62-F B63-F)) (or B66-F B71-F B76-F))))
(assert (not (and B63-F (distinct I63-y (str.to_int (str.substr (ite B62-F S62-S "") 0 4))))))
(assert (not (and (or B62-F B63-F B65-F) (not B66-F) (not B71-F) (not B76-F))))
(assert (not (and B63-F (or (> I63-y (ite B7-F I7-y 0)) (and (= I63-y (ite B7-F I7-y 0)) (> I63-m (str.to_int (ite B8-F S8-S ""))))))))
(assert (not (and B62-F (> (str.to_int (str.substr S62-S 0 4)) 2025))))
(assert (not (and B62-F (or (and B63-F (or (< I63-y 2022) (and (= I63-y 2022) (< I63-m 10)) (and (= I63-y 2022) (= I63-m 10) (< I63-d 1))) (< (str.to_int (str.substr S62-S 0 4)) 2025)) (and B63-F (or (> I63-y 2022) (and (= I63-y 2022) (> I63-m 10)) (and (= I63-y 2022) (= I63-m 10) (> I63-d 1)) (and (= I63-y 2022) (= I63-m 10) (= I63-d 1))) (or (and (< (str.to_int (str.substr S62-S 0 4)) 2025) (= (str.to_int (str.substr S62-S 0 4)) 2024) (>= (str.to_int (ite B8-F S8-S "")) 5) (<= (str.to_int (ite B8-F S8-S "")) 12)) (and (< (str.to_int (str.substr S62-S 0 4)) 2025) (distinct (str.to_int (str.substr S62-S 0 4)) 2024))))))))
(assert (not (and B63-F (or (and (= I63-y (ite B7-F I7-y 0)) (< I63-m (- (str.to_int (ite B8-F S8-S "")) 4))) (and (distinct I63-y (ite B7-F I7-y 0)) (< I63-y (- (ite B7-F I7-y 0) 1))) (and (distinct I63-y (ite B7-F I7-y 0)) (= I63-y (- (ite B7-F I7-y 0) 1)) (> I63-m 8) (< I63-m (- (+ (str.to_int (ite B8-F S8-S "")) 12) 4))) (and (distinct I63-y (ite B7-F I7-y 0)) (= I63-y (- (ite B7-F I7-y 0) 1)) (<= I63-m 8))))))
(assert (not (and (or B68-F B73-F B78-F) (or (and (distinct I68 0) (= I69 0)) (and (distinct I73 0) (= I74 0))))))
(assert (not (and B69-F B70-F (> (ite (>= (- I70 (div (* I69 55) 10)) 0) (- I70 (div (* I69 55) 10)) (- (- I70 (div (* I69 55) 10)))) 100))))
(assert (not (and (or B67-F B68-F B69-F B70-F) (not (and B67-F B68-F B69-F B70-F)))))
(assert (not (and (or B69-F B74-F B79-F) (or (> (* I69 100) (+ (* I68 15) 100)) (> (* I74 100) (+ (* I73 15) 100))))))
(assert (not (and B74-F B75-F (> (ite (>= (- I75 (div (* I74 55) 10)) 0) (- I75 (div (* I74 55) 10)) (- (- I75 (div (* I74 55) 10)))) 100))))
(assert (not (and (or B72-F B73-F B74-F B75-F) (not (and B72-F B73-F B74-F B75-F)))))
(assert (not (and B79-F B80-F (> (ite (>= (- I80 (- 5499999999995)) 0) (- I80 (- 5499999999995)) (- (- I80 (- 5499999999995)))) 100))))
(assert (not (and (or B77-F B78-F B79-F B80-F) (not (and B77-F B78-F B79-F B80-F)))))
(assert (not (and (not (and B82-F B81-F)) (or B83-F B88-F B93-F))))
(assert (not (and (or B82-F B81-F) (not B83-F) (not B88-F) (not B93-F))))
(assert (not (and (or B85-F B90-F B95-F) (or (and (distinct I85 0) (= I86 0)) (and (distinct I90 0) (= I91 0)) (and (distinct I95 0) (= I96 0))))))
(assert (not (and B86-F B87-F (> (ite (>= (- I87 (div (* I86 55) 10)) 0) (- I87 (div (* I86 55) 10)) (- (- I87 (div (* I86 55) 10)))) 100))))
(assert (not (and (or B84-F B85-F B86-F B87-F) (not (and B84-F B85-F B86-F B87-F)))))
(assert (not (and (or B86-F B91-F B96-F) (or (> (* I86 100) (+ (* I85 15) 100)) (> (* I91 100) (+ (* I90 15) 100)) (> (* I96 100) (+ (* I95 15) 100))))))
(assert (not (and B91-F B92-F (> (ite (>= (- I92 (div (* I91 55) 10)) 0) (- I92 (div (* I91 55) 10)) (- (- I92 (div (* I91 55) 10)))) 100))))
(assert (not (and (or B89-F B90-F B91-F B92-F) (not (and B89-F B90-F B91-F B92-F)))))
(assert (not (and B96-F B97-F (> (ite (>= (- I97 (div (* I96 55) 10)) 0) (- I97 (div (* I96 55) 10)) (- (- I97 (div (* I96 55) 10)))) 100))))
(assert (not (and (or B94-F B95-F B96-F B97-F) (not (and B94-F B95-F B96-F B97-F)))))
(assert (not (and B81-F (or (> I81-y (ite B7-F I7-y 0)) (and (> I81-m (str.to_int (ite B8-F S8-S ""))) (= I81-y (ite B7-F I7-y 0)))))))
(assert (not (and B31-F B30-F (or (> I31-y I30-y) (and (= I31-y I30-y) (> I31-m I30-m)) (and (= I31-y I30-y) (= I31-m I30-m) (> I31-d I30-d))))))
(assert (not (and B30-F (or (distinct I30-y (ite B7-F I7-y 0)) (distinct I30-m (str.to_int (ite B8-F S8-S "")))))))
(assert (not (and B30-F (< I30-y 2025))))
(assert (not (and (not (and B31-F B30-F B29-F)) (or B32-F B37-F))))
(assert (not (and (or B31-F B30-F B29-F) (not B32-F) (not B37-F))))
(assert (not (and (or B34-F B39-F) (distinct I39 0) (= I40 0))))
(assert (not (and B35-F B36-F (> (ite (>= (- I36 21894081) 0) (- I36 21894081) (- (- I36 21894081))) 100))))
(assert (not (and (or B33-F B34-F B35-F B36-F) (not (and B33-F B34-F B35-F B36-F)))))
(assert (not (and (or B35-F B40-F) (or (> 398074200 (+ (* I34 15) 100)) (> (* I40 100) (+ (* I39 15) 100))))))
(assert (not (and B40-F B41-F (> (ite (>= (- I41 (div (* I40 55) 10)) 0) (- I41 (div (* I40 55) 10)) (- (- I41 (div (* I40 55) 10)))) 100))))
(assert (not (and (or B38-F B39-F B40-F B41-F) (not (and B38-F B39-F B40-F B41-F)))))
(assert (not (and B29-F B30-F (or (> I29-e-y I30-y) (and (= I29-e-y I30-y) (> I29-e-m I30-m)) (and (= I29-e-y I30-y) (= I29-e-m I30-m) (> I29-e-d I30-d))))))
(assert (not (and B29-F (not B30-F))))
(assert (not (and B29-F (or (< I29-s-y (- I29-e-y 1)) (and (= I29-s-y (- I29-e-y 1)) (< I29-s-m I29-e-m)) (and (= I29-s-y (- I29-e-y 1)) (= I29-s-m I29-e-m) (< I29-s-d (+ I29-e-d 1)))))))
(assert (not (and B45-F B44-F (or (> I45-y I44-y) (and (= I45-y I44-y) (> I45-m I44-m)) (and (= I45-y I44-y) (= I45-m I44-m) (> I45-d I44-d))))))
(assert (not (and B44-F (or (distinct I44-y (ite B7-F I7-y 0)) (distinct I44-m (str.to_int (ite B8-F S8-S "")))))))
(assert (not (and B44-F (< I44-y 2025))))
(assert (not (and (not (and B45-F B44-F B43-F)) (or B46-F B51-F B56-F))))
(assert (not (and (or B45-F B44-F B43-F) (not B46-F) (not B51-F) (not B56-F))))
(assert (not (and (or B48-F B53-F B58-F) (or (and (distinct I53 0) (= I54 0)) (and (distinct I58 0) (= I59 0))))))
(assert (not (and (or B47-F B48-F B49-F B50-F) (not (and B47-F B48-F B49-F B50-F)))))
(assert (not (and (or B49-F B54-F B59-F) (or (> 100 (+ (* I48 15) 100)) (> (* I54 100) (+ (* I53 15) 100)) (> (* I59 100) (+ (* I58 15) 100))))))
(assert (not (and B54-F B55-F (> (ite (>= (- I55 (div (* I54 55) 10)) 0) (- I55 (div (* I54 55) 10)) (- (- I55 (div (* I54 55) 10)))) 100))))
(assert (not (and (or B52-F B53-F B54-F B55-F) (not (and B52-F B53-F B54-F B55-F)))))
(assert (not (and B59-F B60-F (> (ite (>= (- (- 84996819) (div (* I59 55) 10)) 0) (- (- 84996819) (div (* I59 55) 10)) (- (- (- 84996819) (div (* I59 55) 10)))) 100))))
(assert (not (and (or B57-F B58-F B59-F B60-F) (not (and B57-F B58-F B59-F B60-F)))))
(assert (not (and B43-F B44-F (or (> I43-e-y I44-y) (and (= I43-e-y I44-y) (> I43-e-m I44-m)) (and (= I43-e-y I44-y) (= I43-e-m I44-m) (> I43-e-d I44-d))))))
(assert (not (and B43-F (not B44-F))))
(assert (not (and B43-F (or (< I43-s-y (- I43-e-y 1)) (and (= I43-s-y (- I43-e-y 1)) (< I43-s-m I43-e-m)) (and (= I43-s-y (- I43-e-y 1)) (= I43-s-m I43-e-m) (< I43-s-d (+ I43-e-d 1)))))))
(assert (not B102-F))
(assert (and B7-F B8-F))
(assert (not (and B7-F B8-F (or (< 2026 I7-y) (and (= 2026 I7-y) (<= 6 (str.to_int S8-S)))))))
(assert (not (and B7-F B8-F (or (< 2027 I7-y) (and (= 2027 I7-y) (<= 6 (str.to_int S8-S)))))))
(assert (not (and B131-F (not (and B133-F B134-F)))))
(assert (not (and (not B131-F) (or B133-F B134-F))))
(assert (not (and B3-F (= S2-S "0"))))
(assert (not (and B3-F (= S3-S S1-S))))
(assert (not (and (or B111-F B110-F B112-F B108-F B109-F B113-F B114-F B115-F B116-F B117-F B124-F B118-F B121-F B122-F B119-F B120-F B123-F) (not B125-F))))
(assert (not (and B125-F (or B111-F B110-F B112-F B108-F B109-F B113-F B114-F B115-F B116-F B117-F B124-F B118-F B121-F B122-F B119-F B120-F B123-F) (distinct I126 (+ I111 I110 99999999999999 I108 I109 I113 I114 I115 I116 I117 I124 I118 I121 I122 I119 I120 I123)))))
(assert (not (and B125-F (not B111-F) (not B110-F) (not B112-F) (not B108-F) (not B109-F) (not B113-F) (not B114-F) (not B115-F) (not B116-F) (not B117-F) (not B124-F) (not B118-F) (not B121-F) (not B122-F) (not B119-F) (not B120-F) (not B123-F))))
(assert (not (and B125-F B100-F (distinct I126 (* I100 100)))))
(set-info :base-constraint-type ||)
(assert B41-F)
(assert B134-F)
(assert B40-F)
(assert B26-F)
(assert B53-F)
(assert B47-F)
(assert B30-F)
(assert B18-F)
(assert B95-F)
(assert B94-F)
(assert B90-F)
(assert B58-F)
(assert B23-F)
(assert B82-F)
(assert B67-F)
(assert B113-F)
(assert B11-F)
(assert B114-F)
(assert B6-F)
(assert B29-F)
(assert B136-F)
(assert B54-F)
(assert B91-F)
(assert B75-F)
(assert B4-F)
(assert B55-F)
(assert B92-F)
(assert B57-F)
(assert B31-F)
(assert B119-F)
(assert B120-F)
(assert B33-F)
(assert B108-F)
(assert B122-F)
(assert B109-F)
(assert B36-F)
(assert B121-F)
(assert B97-F)
(assert B96-F)
(assert B38-F)
(assert B25-F)
(assert B62-F)
(assert B15-F)
(assert B45-F)
(assert B64-F)
(assert B135-F)
(assert B133-F)
(assert B44-F)
(assert B8-F)
(assert B69-F)
(assert B27-F)
(assert B131-F)
(assert B70-F)
(assert B68-F)
(set-info :major-phase |control constraints|)
(push 1)
(assert B34-F)
(set-info :status sat)
(check-sat)
(push 1)
(assert B80-F)
(set-info :status sat)
(check-sat)
(push 1)
(assert B43-F)
(set-info :status sat)
(check-sat)
(push 1)
(assert B20-F)
(set-info :status sat)
(check-sat)
(push 1)
(assert B123-F)
(set-info :status sat)
(check-sat)
(push 1)
(assert B87-F)
(set-info :status sat)
(check-sat)
(push 1)
(assert B65-F)
(set-info :status sat)
(check-sat)
(push 1)
(assert B86-F)
(set-info :status sat)
(check-sat)
(push 1)
(assert B84-F)
(set-info :status sat)
(check-sat)
(push 1)
(assert B117-F)
(set-info :status sat)
(check-sat)
(push 1)
(assert B137-F)
(set-info :status sat)
(check-sat)
(push 1)
(assert B52-F)
(set-info :status sat)
(check-sat)
(push 1)
(assert B5-F)
(set-info :status sat)
(check-sat)
(push 1)
(assert B63-F)
(set-info :status sat)
(check-sat)
(push 1)
(assert B7-F)
(set-info :status sat)
(check-sat)
(push 1)
(assert B12-F)
(set-info :status sat)
(check-sat)
(push 1)
(assert B72-F)
(set-info :status sat)
(check-sat)
(push 1)
(assert B77-F)
(set-info :status sat)
(check-sat)
(push 1)
(assert B102-F)
(set-info :status unsat)
(check-sat)
(pop 1)
(push 1)
(assert B3-F)
(set-info :status sat)
(check-sat)
(push 1)
(assert B9-F)
(set-info :status sat)
(check-sat)
(push 1)
(assert B13-F)
(set-info :status sat)
(check-sat)
(push 1)
(assert B89-F)
(set-info :status sat)
(check-sat)
(push 1)
(assert B128-F)
(set-info :status sat)
(check-sat)
(push 1)
(assert B81-F)
(set-info :status sat)
(check-sat)
(push 1)
(assert B104-F)
(set-info :status unsat)
(check-sat)
(pop 1)
(push 1)
(assert B73-F)
(set-info :status sat)
(check-sat)
(push 1)
(assert B35-F)
(set-info :status sat)
(check-sat)
(push 1)
(assert B59-F)
(set-info :status sat)
(check-sat)
(push 1)
(assert B124-F)
(set-info :status sat)
(check-sat)
(push 1)
(assert B60-F)
(set-info :status sat)
(check-sat)
(push 1)
(assert B112-F)
(set-info :status sat)
(check-sat)
(push 1)
(assert B99-F)
(set-info :status sat)
(check-sat)
(push 1)
(assert B125-F)
(set-info :status sat)
(check-sat)
(push 1)
(assert B111-F)
(set-info :status sat)
(check-sat)
(push 1)
(assert B110-F)
(set-info :status sat)
(check-sat)
(push 1)
(assert B21-F)
(set-info :status sat)
(check-sat)
(push 1)
(assert B115-F)
(set-info :status sat)
(check-sat)
(push 1)
(assert B78-F)
(set-info :status sat)
(check-sat)
(push 1)
(assert B49-F)
(set-info :status sat)
(check-sat)
(push 1)
(assert B118-F)
(set-info :status sat)
(check-sat)
(push 1)
(assert B48-F)
(set-info :status sat)
(check-sat)
(push 1)
(assert B39-F)
(set-info :status sat)
(check-sat)
(push 1)
(assert B85-F)
(set-info :status sat)
(check-sat)
(push 1)
(assert B98-F)
(set-info :status sat)
(check-sat)
(push 1)
(assert B105-F)
(set-info :status unsat)
(check-sat)
(pop 1)
(push 1)
(assert B50-F)
(set-info :status sat)
(check-sat)
(push 1)
(assert B79-F)
(set-info :status sat)
(check-sat)
(push 1)
(assert B116-F)
(set-info :status sat)
(check-sat)
(push 1)
(assert B28-F)
(set-info :status sat)
(check-sat)
(push 1)
(assert B16-F)
(set-info :status sat)
(check-sat)
(push 1)
(assert B74-F)
(set-info :status sat)
(check-sat)
(push 1)
(assert B22-F)
(set-info :status sat)
(check-sat)
(push 1)
(assert B100-F)
(set-info :status sat)
(check-sat)
(push 1)
(assert B17-F)
(set-info :status sat)
(check-sat)
(exit)

